# Objective value = 607493
x0min 20
y0min 29
max0H 2
max0V 2
x1min 32
y1min 25
max1H 2
max1V 2
x2min 20
y2min 20
b2_reduceLturns 0
x4min 20
y4min 20
max4H 2
max4V 2
x5min 20
y5min 20
b5_reduceLturns 0
x6min 32
y6min 54
max6H 2
max6V 2
x7min 20
y7min 165
b7_reduceLturns 1
b9 0
x8_BoundBx_hminM 20
y8_BoundBx_vminM 29
x11min 71
y11LdistBeforeGateOut 0
y11LdistBeforeGateIn 0
b13 1
x12_BoundBx_hminM 32
y12_BoundBx_vminM 54
x15min 72
y15LdistBeforeGateOut 0
y15LdistBeforeGateIn 0
x16min 13
y16min 100
max16H 3
max16V 3
x17min 12
y17min 13
max17H 3
max17V 3
x18min 12
y18min 12
b18_reduceLturns 0
x19min 38
y19min 45
max19H 2
max19V 2
x20min 25
y20min 37
max20H 3
max20V 3
x21min 12
y21min 12
b21_reduceLturns 0
x22_BoundBx_hminM 38
y22_BoundBx_vminM 45
x22_BoundBx_hminP 25
y22_BoundBx_vminP 37
x24min 13
y24min 156
max24H 3
max24V 3
x25min 12
y25min 12
b25_reduceLturns 0
x26min 20
y26min 20
x27min 20
y27min 20
b27_reduceLturns 0
max26H 2
max26V 2
x28min 20
y28min 20
max28H 2
max28V 2
x29min 20
y29min 114
b29_reduceLturns 1
x30min 20
y30min 29
max30H 2
max30V 2
x31min 20
y31min 20
b31_reduceLturns 0
x32min 29
y32min 54
max32H 2
max32V 2
x33min 20
y33min 20
max33H 2
max33V 2
x34min 20
y34min 134
b34_reduceLturns 1
x35min 20
y35min 20
x36min 20
y36min 20
b36_reduceLturns 0
max35H 2
max35V 2
x37min 20
y37min 20
b37_reduceLturns 0
b39 0
x38_BoundBx_hminM 20
y38_BoundBx_vminM 29
x_CntsBoundBx21__boundbx_min 67
y_CntsBoundBx21__boundbx_min 17
y11LdistAfterGateOut 0
y11LdistAfterGateIn 0
b42 1
x41_BoundBx_hminM 29
y41_BoundBx_vminM 54
x_CntsBoundBx22__boundbx_min 68
y_CntsBoundBx22__boundbx_min 54
y15LdistAfterGateOut 0
y15LdistAfterGateIn 0
width 120
ZERO 0
UM 1
RELAXATION 20000
HGRID_OFFSET 0
VGRID_OFFSET 0
height 520
posNWell 228
yNDiffa 40
yNDiffb 192
yPDiffa 258
yPDiffb 480
yGNDb 72
yVDDa 448
x0b 53
x0a 33
y0b 175
y0a 146
b0_endline_v 1
b0_endline_h 0
x0a2 0
x0b2 60
y0a2 92
y0b2 191
x1b 56
x1a 24
y1b 175
y1a 150
b1_endline_v 0
b1_endline_h 1
x1a2 0
x1b2 60
y1a2 92
y1b2 189
x2b 53
x2a 33
y2b 175
y2a 155
x3b 50
x3a 30
y3b 170
y3a 150
b3_1V 1
b3_2V 0
x3g 40
x3gpos 1
y3g 160
y3gpos 4
x4b 44
x4a 24
y4b 175
y4a 155
b4_endline_v 1
b4_endline_h 0
x4a2 0
x4b2 46
y4a2 0
y4b2 179
x5b 44
x5a 24
y5b 175
y5a 155
x6b 56
x6a 24
y6b 354
y6a 300
b6_endline_v 1
b6_endline_h 0
x6a2 0
x6b2 58
y6a2 296
y6b2 428
x7b 44
x7a 24
y7b 320
y7a 155
x8b 53
x8a 36
y8b 169
y8a 152
x8_BoundBx_a 36
x8_BoundBx_b 53
y8_BoundBx_a 152
y8_BoundBx_b 169
y9a 169
x9b 36
x9a 36
y9b 169
b8_BoundBx__1M 0
b8_BoundBx__2M 1
b8_BoundBx__3M 0
x8_BoundBx_hM 0
y8_BoundBx_vM 6
x_CntsBoundBx0_a 36
x_CntsBoundBx0_b 53
y_CntsBoundBx0_a 152
y_CntsBoundBx0_b 169
b10_v 1
b10_h 0
x10a 34
x10b 55
y10a 144
y10b 192
x11b 105
x11a 34
y11a 144
y11b 192
x12b 50
x12a 33
y12b 317
y12a 300
x12_BoundBx_a 33
x12_BoundBx_b 50
y12_BoundBx_a 300
y12_BoundBx_b 354
y13a 337
x13b 50
x13a 33
y13b 354
b12_BoundBx__1M 1
b12_BoundBx__2M 0
b12_BoundBx__3M 0
x12_BoundBx_hM 6
y12_BoundBx_vM 0
b8_BoundBx__12_BoundBx__1 0
b8_BoundBx__12_BoundBx__2 1
b8_BoundBx__12_BoundBx__3 0
x_CntsBoundBx1_a 33
x_CntsBoundBx1_b 50
y_CntsBoundBx1_a 300
y_CntsBoundBx1_b 354
b14_v 1
b14_h 0
x14a 31
x14b 57
y14a 258
y14b 362
x15b 103
x15a 31
y15a 258
y15b 362
b8_BoundBx__15_1_2 1
b8_BoundBx__15_2_2 0
b8_BoundBx__15_3_2 0
b12_BoundBx__11_1_3 1
b12_BoundBx__11_2_3 0
b12_BoundBx__11_3_3 0
x16b 76
x16a 63
y16b 218
y16a 118
b16_endline_v 1
b16_endline_h 0
x16a2 0
x16b2 79
y16a2 0
y16b2 221
x17b 75
x17a 63
y17b 219
y17a 206
b17_endline_v 1
b17_endline_h 0
x17a2 0
x17b2 78
y17a2 0
y17b2 222
x18b 75
x18a 63
y18b 218
y18a 206
b11_17_1_4 0
b11_17_2_4 0
b11_17_3_4 1
b15_17_1_5 1
b15_17_2_5 0
b15_17_3_5 0
x19b 104
x19a 66
y19b 256
y19a 211
b19_endline_v 1
b19_endline_h 0
x19a2 64
x19b2 114
y19a2 207
y19b2 280
b0_19_1 0
b0_19_2 1
b0_19_3 0
b1_19_1 0
b1_19_2 1
b1_19_3 0
b6_19_1 0
b6_19_2 1
b6_19_3 0
x20b 87
x20a 62
y20b 244
y20a 207
b20_endline_v 1
b20_endline_h 0
x20a2 0
x20b2 90
y20a2 0
y20b2 247
x21b 75
x21a 63
y21b 219
y21a 207
b11_20_1_6 0
b11_20_2_6 0
b11_20_3_6 1
b15_20_1_7 1
b15_20_2_7 0
b15_20_3_7 0
x22b 83
x22a 66
y22b 234
y22a 217
x22_BoundBx_a 66
x22_BoundBx_b 83
y22_BoundBx_a 217
y22_BoundBx_b 234
b22_BoundBx__1M 0
b22_BoundBx__2M 1
b22_BoundBx__3M 0
x22_BoundBx_hM 0
y22_BoundBx_vM 6
b8_BoundBx__22_BoundBx__1 0
b8_BoundBx__22_BoundBx__2 0
b8_BoundBx__22_BoundBx__3 1
b12_BoundBx__22_BoundBx__1 0
b12_BoundBx__22_BoundBx__2 1
b12_BoundBx__22_BoundBx__3 0
b22_BoundBx__1P 0
b22_BoundBx__2P 1
b22_BoundBx__3P 0
x22_BoundBx_hP 4
y22_BoundBx_vP 10
x23b 90
x23a 70
y23b 250
y23a 230
b23_1V 0
b23_2V 1
x19_width 38
y19_width 45
x23g 80
x23gpos 2
y23g 240
y23gpos 6
x24b 74
x24a 61
y24b 388
y24a 232
b24_endline_v 1
b24_endline_h 0
x24a2 0
x24b2 77
y24a2 0
y24b2 391
x25b 74
x25a 62
y25b 244
y25a 232
b11_smallTransWidth 0
b17_16_1_8 0
b17_16_2_8 0
b17_16_3_8 0
b11_LshapeBeforeGate 0
b11_applyS2BeforeGate 0
b16_applyExtraExtBeforeGate 0
b11_LshapeBeforeGateOut 0
b11_LshapeBeforeGateIn 0
b11_LshapeAfterGateIn 0
b11_Ushape 0
b11_LshapeAfterGateOut 0
x11_lastDiffEnc_b 55
b15_smallTransWidth 0
b20_24_1_9 0
b20_24_2_9 0
b20_24_3_9 0
b15_LshapeBeforeGate 0
b15_applyS2BeforeGate 0
b24_applyExtraExtBeforeGate 0
b15_LshapeBeforeGateOut 0
b15_LshapeBeforeGateIn 0
b15_LshapeAfterGateIn 0
b15_Ushape 0
b15_LshapeAfterGateOut 0
x15_lastDiffEnc_b 57
b16_15_1_10 1
b16_15_2_10 0
b16_15_3_10 0
b16_15_1_11 1
b16_15_2_11 0
b16_15_3_11 0
b17_11_1_12 1
b17_11_2_12 0
b17_11_3_12 0
b17_15_1_13 1
b17_15_2_13 0
b17_15_3_13 0
b22_BoundBx__11_1_14 1
b22_BoundBx__11_2_14 0
b22_BoundBx__11_3_14 0
b22_BoundBx__15_1_15 1
b22_BoundBx__15_2_15 0
b22_BoundBx__15_3_15 0
b20_11_1_16 1
b20_11_2_16 0
b20_11_3_16 0
b20_15_1_17 1
b20_15_2_17 0
b20_15_3_17 0
b24_11_1_18 1
b24_11_2_18 0
b24_11_3_18 0
b24_11_1_19 1
b24_11_2_19 0
b24_11_3_19 0
b24_11_1_20 1
b24_11_2_20 0
b24_11_3_20 0
x26b 103
x26a 83
y26b 72
y26a 52
x27b 103
x27a 83
y27b 72
y27a 52
xGNDb 103
xGNDa 0
yGNDa 0
b26_endline_v 1
b26_endline_h 0
x26a2 78
x26b2 105
y26a2 0
y26b2 87
b0_26_1 1
b0_26_2 0
b0_26_3 0
b1_26_1 0
b1_26_2 0
b1_26_3 1
b19_26_1 0
b19_26_2 1
b19_26_3 0
b6_26_1 0
b6_26_2 1
b6_26_3 0
x28b 103
x28a 83
y28b 166
y28a 146
b28_endline_v 0
b28_endline_h 1
x28a2 76
x28b2 107
y28a2 0
y28b2 174
b0_28_1 1
b0_28_2 0
b0_28_3 0
b1_28_1 1
b1_28_2 0
b1_28_3 0
b19_28_1 0
b19_28_2 1
b19_28_3 0
b6_28_1 0
b6_28_2 1
b6_28_3 0
x29b 103
x29a 83
y29b 166
y29a 52
x30b 103
x30a 83
y30b 175
y30a 146
b30_endline_v 1
b30_endline_h 0
x30a2 78
x30b2 105
y30a2 0
y30b2 179
b0_30_1 1
b0_30_2 0
b0_30_3 0
b1_30_1 1
b1_30_2 0
b1_30_3 0
b19_30_1 0
b19_30_2 1
b19_30_3 0
b6_30_1 0
b6_30_2 0
b6_30_3 1
x31b 103
x31a 83
y31b 166
y31a 146
x32b 107
x32a 78
y32b 354
y32a 300
b32_endline_v 1
b32_endline_h 0
x32a2 76
x32b2 109
y32a2 296
y32b2 358
b0_32_1 0
b0_32_2 1
b0_32_3 0
b1_32_1 0
b1_32_2 1
b1_32_3 0
b19_32_1 0
b19_32_2 1
b19_32_3 0
b6_32_1 1
b6_32_2 0
b6_32_3 0
x33b 107
x33a 87
y33b 468
y33a 448
b33_endline_v 1
b33_endline_h 0
x33a2 77
x33b2 109
y33a2 296
y33b2 472
b0_33_1 0
b0_33_2 1
b0_33_3 0
b1_33_1 0
b1_33_2 1
b1_33_3 0
b19_33_1 0
b19_33_2 1
b19_33_3 0
b6_33_1 1
b6_33_2 0
b6_33_3 0
x34b 107
x34a 87
y34b 468
y34a 334
x35b 107
x35a 87
y35b 468
y35a 448
x36b 107
x36a 87
y36b 468
y36a 448
xVDDa 0
xVDDb 107
yVDDb 468
b35_endline_v 1
b35_endline_h 0
x35a2 77
x35b2 109
y35a2 444
y35b2 472
b0_35_1 0
b0_35_2 1
b0_35_3 0
b1_35_1 0
b1_35_2 1
b1_35_3 0
b19_35_1 0
b19_35_2 1
b19_35_3 0
b6_35_1 1
b6_35_2 0
b6_35_3 0
x37b 107
x37a 87
y37b 468
y37a 448
x38b 103
x38a 86
y38b 169
y38a 152
x38_BoundBx_a 86
x38_BoundBx_b 103
y38_BoundBx_a 152
y38_BoundBx_b 169
y39a 169
x39b 86
x39a 86
y39b 169
b38_BoundBx__1M 0
b38_BoundBx__2M 1
b38_BoundBx__3M 0
x38_BoundBx_hM 0
y38_BoundBx_vM 6
b8_BoundBx__38_BoundBx__1 1
b8_BoundBx__38_BoundBx__2 0
b8_BoundBx__38_BoundBx__3 0
b22_BoundBx__38_BoundBx__1 0
b22_BoundBx__38_BoundBx__2 1
b22_BoundBx__38_BoundBx__3 0
b12_BoundBx__38_BoundBx__1 0
b12_BoundBx__38_BoundBx__2 1
b12_BoundBx__38_BoundBx__3 0
x_CntsBoundBx21_a 86
x_CntsBoundBx21_b 103
y_CntsBoundBx21_a 152
y_CntsBoundBx21_b 169
b40_v 1
b40_h 0
x40a 84
x40b 105
y40a 144
y40b 192
y_CntsBoundBx21__boundbx_a 152
y_CntsBoundBx21__boundbx_b 169
b11_LshapeAfterGate 0
b11_applyS2AfterGate 0
b16_applyExtraExtAfterGate 0
x41b 101
x41a 84
y41b 317
y41a 300
x41_BoundBx_a 84
x41_BoundBx_b 101
y41_BoundBx_a 300
y41_BoundBx_b 354
y42a 337
x42b 101
x42a 84
y42b 354
b41_BoundBx__1M 1
b41_BoundBx__2M 0
b41_BoundBx__3M 0
x41_BoundBx_hM 6
y41_BoundBx_vM 0
b38_BoundBx__41_BoundBx__1 0
b38_BoundBx__41_BoundBx__2 1
b38_BoundBx__41_BoundBx__3 0
b8_BoundBx__41_BoundBx__1 0
b8_BoundBx__41_BoundBx__2 1
b8_BoundBx__41_BoundBx__3 0
b22_BoundBx__41_BoundBx__1 0
b22_BoundBx__41_BoundBx__2 1
b22_BoundBx__41_BoundBx__3 0
b12_BoundBx__41_BoundBx__1 1
b12_BoundBx__41_BoundBx__2 0
b12_BoundBx__41_BoundBx__3 0
x_CntsBoundBx22_a 84
x_CntsBoundBx22_b 101
y_CntsBoundBx22_a 300
y_CntsBoundBx22_b 354
b43_v 1
b43_h 0
x43a 79
x43b 103
y43a 258
y43b 362
y_CntsBoundBx22__boundbx_a 300
y_CntsBoundBx22__boundbx_b 354
b15_LshapeAfterGate 0
b15_applyS2AfterGate 0
b24_applyExtraExtAfterGate 0
b38_BoundBx__15_1_23 1
b38_BoundBx__15_2_23 0
b38_BoundBx__15_3_23 0
b41_BoundBx__11_1_24 1
b41_BoundBx__11_2_24 0
b41_BoundBx__11_3_24 0
width_gpos 3
+ 0
- 0
12 0
0.500000 0
2.000000 0
20 0
